K-Points
0
Monkhorst-Pack
11 11 11
0 0 0
