copper
 3.524
 1.0 0.0 0.0
 0.0 1.0 0.0
 0.0 0.0 1.0
 4
direct
 0.5 0.5 0.0
 0.0 0.5 0.5
 0.5 0.0 0.5
 0.0 0.0 0.0
